;; produced by z3_gnatprove.drv ;;
(set-info :smt-lib-version 2.5)
(set-info :source |VC generated by SPARK 2014|)
(set-info :category industrial)
(set-info :status unknown)
;;; generated by SMT-LIB2 driver
;;; SMT-LIB2 driver: bit-vectors, common part
;;; SMT-LIB2: integer arithmetic
(declare-sort string 0)

(declare-datatypes () ((tuple0 (Tuple0))))
(declare-sort us_private 0)

(declare-fun private__bool_eq (us_private us_private) Bool)

(declare-const us_null_ext__ us_private)

(declare-sort us_type_of_heap 0)

(declare-datatypes ()
((us_type_of_heap__ref
 (us_type_of_heap__refqtmk (us_type_of_heap__content us_type_of_heap)))))
(declare-sort us_image 0)

(declare-datatypes () ((int__ref (int__refqtmk (int__content Int)))))
(declare-datatypes () ((bool__ref (bool__refqtmk (bool__content Bool)))))
(declare-datatypes ()
((us_fixed__ref (us_fixed__refqtmk (us_fixed__content Int)))))
(declare-datatypes () ((real__ref (real__refqtmk (real__content Real)))))
(declare-datatypes ()
((us_private__ref (us_private__refqtmk (us_private__content us_private)))))
(define-fun int__ref___projection ((a int__ref)) Int (int__content a))

(define-fun us_fixed__ref___projection ((a us_fixed__ref)) Int (us_fixed__content
                                                               a))

(define-fun bool__ref___projection ((a bool__ref)) Bool (bool__content a))

(define-fun real__ref___projection ((a real__ref)) Real (real__content a))

(define-fun us_private__ref___projection ((a us_private__ref)) us_private 
  (us_private__content a))

(declare-const x Int)

(declare-const attr__ATTRIBUTE_ADDRESS Int)

(declare-const attr__ATTRIBUTE_ADDRESS1 Int)

(declare-sort fixed 0)

(define-fun in_range ((x1 Int)) Bool (and (<= (- 128) x1) (<= x1 127)))

(declare-const dummy fixed)

(declare-fun attr__ATTRIBUTE_IMAGE (Int) us_image)

(declare-fun attr__ATTRIBUTE_VALUE__pre_check (us_image) Bool)

(declare-fun attr__ATTRIBUTE_VALUE (us_image) Int)

(declare-fun user_eq (fixed fixed) Bool)

(declare-datatypes () ((fixed__ref (fixed__refqtmk (fixed__content fixed)))))
(define-fun fixed__ref_fixed__content__projection ((a fixed__ref)) fixed 
  (fixed__content a))

(define-fun dynamic_invariant ((temp___expr_207 Int)
  (temp___is_init_203 Bool) (temp___skip_constant_204 Bool)
  (temp___do_toplevel_205 Bool)
  (temp___do_typ_inv_206 Bool)) Bool (=>
                                     (or (= temp___is_init_203 true)
                                     (<= (- 128) 127)) (in_range
                                     temp___expr_207)))

(declare-sort natural_fixed 0)

(define-fun in_range1 ((x1 Int)) Bool (and (<= 0 x1) (<= x1 127)))

(declare-const dummy1 natural_fixed)

(declare-fun attr__ATTRIBUTE_IMAGE1 (Int) us_image)

(declare-fun attr__ATTRIBUTE_VALUE__pre_check1 (us_image) Bool)

(declare-fun attr__ATTRIBUTE_VALUE1 (us_image) Int)

(declare-fun user_eq1 (natural_fixed natural_fixed) Bool)

(declare-datatypes ()
((natural_fixed__ref
 (natural_fixed__refqtmk (natural_fixed__content natural_fixed)))))
(define-fun natural_fixed__ref_natural_fixed__content__projection ((a natural_fixed__ref)) natural_fixed 
  (natural_fixed__content a))

(define-fun dynamic_invariant1 ((temp___expr_214 Int)
  (temp___is_init_210 Bool) (temp___skip_constant_211 Bool)
  (temp___do_toplevel_212 Bool)
  (temp___do_typ_inv_213 Bool)) Bool (=>
                                     (or (= temp___is_init_210 true)
                                     (<= 0 127)) (in_range1 temp___expr_214)))

(declare-const u Int)

;; Assume
  (assert (dynamic_invariant x true false true true))

;; Assume
  (assert (dynamic_invariant1 u false false true true))

(assert
;; defqtvc
 ;; File "range_check.adb", line 36, characters 0-0
  (not (in_range1 x)))
(check-sat)
